1 -1 -2 0
1 1 3 0
1 1 4 0
1 -5 -6 0
1 -5 7 0
1 5 2 0
1 5 -1 0
1 8 9 0
1 -8 2 0
1 8 10 0
1 -8 -11 0
1 -12 13 0
1 12 14 0
1 12 -10 0
1 -12 8 0
1 -2 15 0
1 -2 16 0
1 -2 17 0
1 2 -18 0
1 2 8 0
1 2 -1 0
1 -4 17 0
1 4 -5 0
1 -4 -2 0
1 -4 -19 0
1 4 -18 0
1 -4 -20 0
1 -4 -1 0
1 -7 -21 0
1 -7 -22 0
1 7 12 0
1 7 23 0
1 -7 -19 0
1 -7 -8 0
1 -7 -1 0
1 -7 3 0
1 -3 21 0
1 -3 -12 0
1 3 7 0
1 -3 -19 0
1 3 8 0
1 -3 -1 0
1 -3 -24 0
1 -20 -9 0
1 -20 13 0
1 20 17 0
1 -20 2 0
1 20 25 0
1 20 -10 0
1 17 9 0
1 17 -13 0
1 -17 22 0
1 17 -2 0
1 17 -25 0
1 17 10 0
1 18 13 0
1 18 16 0
1 18 2 0
1 18 10 0
1 -18 -26 0
1 18 -27 0
1 16 -9 0
1 16 -13 0
1 16 21 0
1 16 2 0
1 16 25 0
1 -16 10 0
1 16 -18 0
1 16 -28 0
1 16 4 0
1 -10 -29 0
1 10 17 0
1 10 30 0
1 10 31 0
1 10 32 0
1 -10 33 0
1 -10 -18 0
1 10 20 0
1 10 8 0
1 10 34 0
1 13 -35 0
1 -13 29 0
1 -13 16 0
1 13 17 0
1 -13 12 0
1 13 -31 0
1 13 -18 0
1 -13 34 0
1 25 -9 0
1 -25 -36 0
1 -25 -15 0
1 25 -12 0
1 25 -37 0
1 25 -38 0
1 25 19 0
1 25 8 0
1 -25 -34 0
1 -9 36 0
1 -9 -39 0
1 -9 17 0
1 -9 12 0
1 9 -30 0
1 -9 -25 0
1 -9 37 0
1 -9 20 0
1 -9 8 0
1 -32 -29 0
1 -32 -13 0
1 32 28 0
1 29 -15 0
1 -29 -40 0
1 -29 41 0
1 -29 32 0
1 29 26 0
1 -29 28 0
1 31 13 0
1 -31 40 0
1 -31 10 0
1 -31 -28 0
1 35 -36 0
1 35 -40 0
1 35 31 0
1 -35 10 0
1 35 28 0
1 28 -35 0
1 28 -16 0
1 28 -41 0
1 28 -42 0
1 28 -32 0
1 28 43 0
1 -28 44 0
1 41 35 0
1 41 29 0
1 -41 45 0
1 -41 31 0
1 41 -32 0
1 -41 -18 0
1 -26 29 0
1 -26 42 0
1 -26 46 0
1 -26 -30 0
1 26 18 0
1 -26 -47 0
1 40 29 0
1 40 16 0
1 40 48 0
1 -40 -31 0
1 40 32 0
1 -40 -18 0
1 -40 44 0
1 -40 -49 0
1 50 -51 0
1 -50 6 0
1 -50 52 0
1 -50 -53 0
1 50 54 0
1 -6 -55 0
1 6 -51 0
1 -6 5 0
1 -6 50 0
1 11 -51 0
1 -11 56 0
1 -11 14 0
1 -11 52 0
1 11 -53 0
1 11 -57 0
1 11 -8 0
1 -11 -58 0
1 14 55 0
1 -14 51 0
1 14 -56 0
1 -14 12 0
1 -14 -52 0
1 -14 -53 0
1 -51 -59 0
1 -51 -14 0
1 51 53 0
1 -51 60 0
1 -51 27 0
1 -51 -11 0
1 51 -50 0
1 -53 51 0
1 -53 21 0
1 -53 6 0
1 -53 27 0
1 53 61 0
1 -53 11 0
1 -53 -50 0
1 -55 -62 0
1 55 -63 0
1 55 64 0
1 -55 -52 0
1 55 -65 0
1 55 -11 0
1 52 66 0
1 -52 64 0
1 -52 -67 0
1 52 -60 0
1 61 -51 0
1 -61 22 0
1 -61 -68 0
1 -61 7 0
1 61 -20 0
1 22 -56 0
1 22 17 0
1 -22 -68 0
1 22 64 0
1 22 -7 0
1 22 53 0
1 22 -57 0
1 22 69 0
1 22 -61 0
1 22 3 0
1 -27 51 0
1 27 -21 0
1 -27 -56 0
1 27 -68 0
1 -27 70 0
1 27 71 0
1 -27 57 0
1 27 18 0
1 -27 69 0
1 27 -72 0
1 27 -73 0
1 27 -3 0
1 21 69 0
1 21 16 0
1 21 -71 0
1 -21 7 0
1 21 53 0
1 21 -57 0
1 -21 74 0
1 21 3 0
1 68 -75 0
1 68 -21 0
1 -68 14 0
1 -68 -76 0
1 -68 -19 0
1 -68 61 0
1 -68 11 0
1 -69 75 0
1 -69 21 0
1 -69 -68 0
1 69 -19 0
1 -69 27 0
1 69 11 0
1 56 -77 0
1 56 63 0
1 -56 21 0
1 -56 -78 0
1 56 -57 0
1 -56 60 0
1 -56 61 0
1 57 -75 0
1 57 77 0
1 -57 63 0
1 -57 -56 0
1 57 -76 0
1 57 78 0
1 -57 27 0
1 57 61 0
1 -19 15 0
1 -19 -68 0
1 19 -25 0
1 -19 -32 0
1 19 69 0
1 -19 -73 0
1 -19 -74 0
1 -15 9 0
1 -15 63 0
1 -15 68 0
1 15 71 0
1 -15 7 0
1 -15 19 0
1 -15 -3 0
1 37 -79 0
1 37 68 0
1 37 23 0
1 -37 -80 0
1 37 78 0
1 -37 -69 0
1 -37 -73 0
1 -37 24 0
1 -36 35 0
1 -36 77 0
1 36 71 0
1 -36 80 0
1 36 25 0
1 36 -37 0
1 -36 74 0
1 -36 24 0
1 71 15 0
1 71 21 0
1 71 81 0
1 71 30 0
1 -71 -37 0
1 -71 19 0
1 -71 -27 0
1 -71 82 0
1 71 -34 0
1 74 -36 0
1 -74 -15 0
1 -74 81 0
1 74 -46 0
1 74 -83 0
1 -74 37 0
1 74 19 0
1 74 27 0
1 74 82 0
1 74 34 0
1 -70 15 0
1 -70 21 0
1 70 -84 0
1 70 -81 0
1 70 -76 0
1 70 -27 0
1 70 73 0
1 70 82 0
1 70 85 0
1 -73 15 0
1 -73 -21 0
1 -73 70 0
1 73 81 0
1 73 -76 0
1 -73 37 0
1 -73 -27 0
1 -73 -86 0
1 -73 -85 0
1 30 -13 0
1 -30 71 0
1 30 -23 0
1 -30 25 0
1 30 -10 0
1 30 -74 0
1 -30 -24 0
1 -34 -75 0
1 -34 9 0
1 34 79 0
1 34 13 0
1 34 71 0
1 -34 -30 0
1 -34 25 0
1 -34 -10 0
1 -34 24 0
1 -46 79 0
1 -46 87 0
1 -46 40 0
1 -46 88 0
1 -46 -38 0
1 46 -74 0
1 -46 49 0
1 46 -24 0
1 -49 79 0
1 49 46 0
1 49 23 0
1 49 -38 0
1 -49 -33 0
1 -49 -26 0
1 49 -24 0
1 49 74 0
1 49 -85 0
1 -80 -79 0
1 -80 -36 0
1 80 89 0
1 80 90 0
1 80 42 0
1 80 46 0
1 80 -30 0
1 -80 -91 0
1 -80 -37 0
1 80 92 0
1 -80 -93 0
1 80 -44 0
1 79 -36 0
1 79 89 0
1 -79 -90 0
1 -79 -42 0
1 79 46 0
1 -79 -4 0
1 -79 -49 0
1 -23 89 0
1 -23 -7 0
1 -23 -30 0
1 23 -94 0
1 23 49 0
1 -23 24 0
1 -23 -34 0
1 -24 36 0
1 -24 -95 0
1 24 -81 0
1 24 -30 0
1 24 -37 0
1 -24 3 0
1 24 -92 0
1 -24 -82 0
1 -24 96 0
1 -42 -39 0
1 -42 -81 0
1 -42 -80 0
1 -42 -38 0
1 -42 44 0
1 44 -79 0
1 44 -39 0
1 44 87 0
1 44 40 0
1 -44 -42 0
1 -44 -80 0
1 44 38 0
1 44 -28 0
1 -44 82 0
1 90 39 0
1 90 87 0
1 -90 93 0
1 -90 45 0
1 90 80 0
1 -90 -38 0
1 -90 33 0
1 93 -39 0
1 -93 87 0
1 -93 -48 0
1 -93 -80 0
1 -93 33 0
1 -93 -47 0
1 93 43 0
1 -93 97 0
1 -33 98 0
1 -33 -99 0
1 -33 42 0
1 -33 46 0
1 -33 -100 0
1 33 10 0
1 -33 101 0
1 -33 102 0
1 -33 -103 0
1 33 93 0
1 33 44 0
1 33 49 0
1 -87 -13 0
1 87 98 0
1 -87 104 0
1 87 -105 0
1 -87 -90 0
1 -87 42 0
1 -87 -46 0
1 87 -101 0
1 87 -33 0
1 87 103 0
1 -87 93 0
1 -87 -44 0
1 -87 -49 0
1 -38 39 0
1 38 98 0
1 -38 -106 0
1 38 89 0
1 38 42 0
1 38 -100 0
1 -38 107 0
1 38 -44 0
1 39 -108 0
1 -39 -98 0
1 39 -106 0
1 39 89 0
1 -39 -90 0
1 -39 42 0
1 -39 46 0
1 -39 100 0
1 39 92 0
1 39 -44 0
1 99 87 0
1 99 48 0
1 -99 45 0
1 99 47 0
1 99 33 0
1 -99 -103 0
1 99 43 0
1 103 87 0
1 103 99 0
1 103 45 0
1 103 -47 0
1 -103 92 0
1 105 48 0
1 -105 101 0
1 105 47 0
1 -105 -43 0
1 -101 48 0
1 101 -45 0
1 101 -47 0
1 101 -43 0
1 -43 -109 0
1 43 105 0
1 -43 99 0
1 43 45 0
1 43 101 0
1 43 -103 0
1 -43 -28 0
1 43 -110 0
1 45 -109 0
1 -45 -41 0
1 -45 -99 0
1 -45 111 0
1 -45 -90 0
1 45 -112 0
1 45 -101 0
1 45 -103 0
1 -45 -43 0
1 47 98 0
1 -47 -99 0
1 47 90 0
1 47 -112 0
1 -47 100 0
1 47 -26 0
1 -47 -113 0
1 -47 93 0
1 48 -109 0
1 48 -114 0
1 -48 40 0
1 48 105 0
1 -48 -115 0
1 -48 90 0
1 48 112 0
1 48 116 0
1 48 47 0
1 48 -93 0
1 -54 -117 0
1 54 -118 0
1 54 -50 0
1 -119 120 0
1 119 -54 0
1 -58 -121 0
1 58 -117 0
1 -58 120 0
1 -58 -122 0
1 58 11 0
1 123 -117 0
1 -123 124 0
1 123 -120 0
1 -120 -66 0
1 120 117 0
1 -120 125 0
1 -120 -58 0
1 117 -120 0
1 -117 66 0
1 117 -126 0
1 117 -64 0
1 117 119 0
1 -117 72 0
1 -117 65 0
1 -117 -58 0
1 -117 54 0
1 118 -127 0
1 118 -121 0
1 118 -123 0
1 118 -58 0
1 118 -54 0
1 -121 119 0
1 121 -118 0
1 -121 -58 0
1 -65 -64 0
1 -65 124 0
1 -65 128 0
1 65 120 0
1 65 122 0
1 64 22 0
1 -64 -124 0
1 64 -128 0
1 -64 65 0
1 72 129 0
1 -72 -55 0
1 -72 66 0
1 -72 -117 0
1 72 -130 0
1 -72 -52 0
1 -72 27 0
1 -72 122 0
1 72 131 0
1 -72 132 0
1 -66 55 0
1 66 -120 0
1 -66 21 0
1 66 124 0
1 -66 130 0
1 -66 133 0
1 -66 52 0
1 66 -72 0
1 -66 -131 0
1 -131 134 0
1 -131 77 0
1 131 -63 0
1 131 -66 0
1 131 -64 0
1 -131 -123 0
1 131 -128 0
1 131 -78 0
1 131 60 0
1 131 72 0
1 -128 -134 0
1 -128 -77 0
1 128 -63 0
1 128 -64 0
1 -128 135 0
1 -128 -78 0
1 -128 -60 0
1 -128 -131 0
1 -128 72 0
1 122 124 0
1 -122 123 0
1 -122 72 0
1 -122 65 0
1 -122 -136 0
1 124 134 0
1 -124 64 0
1 124 -137 0
1 124 -123 0
1 124 122 0
1 -60 -129 0
1 -60 -55 0
1 -60 63 0
1 -60 -128 0
1 -60 -130 0
1 60 52 0
1 -60 -53 0
1 -60 57 0
1 -60 -131 0
1 -63 129 0
1 -63 55 0
1 -63 -15 0
1 63 128 0
1 63 -133 0
1 -63 -53 0
1 63 57 0
1 63 -60 0
1 -63 132 0
1 78 -62 0
1 -78 -59 0
1 -78 -56 0
1 -78 -128 0
1 -78 -130 0
1 78 -37 0
1 -78 138 0
1 -78 -57 0
1 -78 -131 0
1 78 132 0
1 -77 -129 0
1 -77 -36 0
1 77 -62 0
1 77 -59 0
1 -77 56 0
1 77 128 0
1 77 -130 0
1 77 133 0
1 77 57 0
1 -77 138 0
1 77 132 0
1 -129 75 0
1 -129 -139 0
1 129 77 0
1 -129 63 0
1 129 66 0
1 -129 140 0
1 129 133 0
1 -129 78 0
1 129 -60 0
1 -129 -141 0
1 -129 -85 0
1 133 -77 0
1 -133 -63 0
1 -133 66 0
1 -133 88 0
1 -133 -142 0
1 133 78 0
1 133 -60 0
1 133 141 0
1 133 -85 0
1 -132 134 0
1 -132 -77 0
1 -132 -63 0
1 132 -130 0
1 -132 140 0
1 -132 135 0
1 -132 -78 0
1 132 -60 0
1 132 72 0
1 132 -141 0
1 130 -134 0
1 -130 77 0
1 130 -66 0
1 130 -140 0
1 -130 143 0
1 -130 -78 0
1 130 60 0
1 130 72 0
1 -130 141 0
1 130 -144 0
1 76 75 0
1 76 129 0
1 -76 59 0
1 76 -133 0
1 76 -30 0
1 76 67 0
1 -76 -138 0
1 76 57 0
1 -75 -134 0
1 75 -56 0
1 -75 133 0
1 -75 57 0
1 75 69 0
1 75 73 0
1 88 -145 0
1 -88 -146 0
1 -88 -70 0
1 -88 -133 0
1 88 -147 0
1 88 67 0
1 -88 138 0
1 -88 -148 0
1 -88 73 0
1 -88 85 0
1 85 62 0
1 85 -59 0
1 -85 145 0
1 -85 -146 0
1 -85 148 0
1 85 149 0
1 -85 49 0
1 59 -77 0
1 59 150 0
1 -59 95 0
1 -59 -88 0
1 -59 -138 0
1 59 97 0
1 -59 -82 0
1 138 75 0
1 -138 77 0
1 138 150 0
1 138 -95 0
1 -138 -81 0
1 138 -88 0
1 -138 76 0
1 138 -151 0
1 -138 -82 0
1 -62 77 0
1 -62 -152 0
1 62 88 0
1 62 -67 0
1 62 -78 0
1 -62 -141 0
1 67 75 0
1 -67 77 0
1 67 62 0
1 -67 -150 0
1 67 -152 0
1 -67 140 0
1 67 -88 0
1 -67 -76 0
1 67 -153 0
1 67 141 0
1 81 -59 0
1 -81 146 0
1 81 138 0
1 81 149 0
1 -81 -24 0
1 -82 -145 0
1 82 146 0
1 82 71 0
1 -82 138 0
1 -82 -148 0
1 82 -149 0
1 82 44 0
1 82 -141 0
1 95 59 0
1 95 -146 0
1 95 -90 0
1 95 -152 0
1 95 -23 0
1 95 -149 0
1 -95 97 0
1 95 83 0
1 -97 59 0
1 97 -145 0
1 -97 95 0
1 97 -84 0
1 -97 154 0
1 97 138 0
1 97 148 0
1 97 -149 0
1 97 -86 0
1 97 24 0
1 146 -149 0
1 -146 -155 0
1 -146 89 0
1 146 -156 0
1 -146 -88 0
1 146 -157 0
1 -146 107 0
1 -146 -92 0
1 146 97 0
1 146 85 0
1 -149 95 0
1 -149 88 0
1 149 -107 0
1 149 69 0
1 -149 92 0
1 -149 -82 0
1 -149 85 0
1 -145 155 0
1 145 -56 0
1 145 -158 0
1 -145 -150 0
1 -145 -81 0
1 -145 88 0
1 145 -148 0
1 145 159 0
1 -145 -160 0
1 148 155 0
1 148 -145 0
1 -148 150 0
1 -148 -157 0
1 -148 57 0
1 -148 97 0
1 148 -82 0
1 148 85 0
1 89 79 0
1 89 149 0
1 -89 146 0
1 -89 -84 0
1 89 154 0
1 89 -38 0
1 -89 -83 0
1 92 79 0
1 92 -39 0
1 -92 89 0
1 92 146 0
1 92 103 0
1 -92 83 0
1 -106 -105 0
1 -106 161 0
1 -106 -146 0
1 -106 84 0
1 -106 94 0
1 -106 -91 0
1 106 38 0
1 -106 107 0
1 -106 -86 0
1 107 -39 0
1 107 106 0
1 -107 -38 0
1 107 -101 0
1 107 -159 0
1 -107 83 0
1 -107 -96 0
1 -154 71 0
1 -154 162 0
1 154 -100 0
1 154 92 0
1 154 97 0
1 -154 83 0
1 83 -114 0
1 -83 -98 0
1 -83 -106 0
1 83 89 0
1 83 95 0
1 83 -116 0
1 -83 92 0
1 83 -97 0
1 -83 -163 0
1 84 -164 0
1 -84 106 0
1 84 86 0
1 -84 89 0
1 84 70 0
1 84 95 0
1 -84 -165 0
1 84 -162 0
1 -84 166 0
1 -84 157 0
1 -84 -97 0
1 -86 -167 0
1 86 164 0
1 -86 -155 0
1 -86 -106 0
1 86 -89 0
1 86 -84 0
1 86 -162 0
1 -86 -157 0
1 86 -92 0
1 86 -73 0
1 -86 168 0
1 98 39 0
1 98 94 0
1 98 100 0
1 -98 47 0
1 -98 83 0
1 -100 169 0
1 -100 87 0
1 100 -48 0
1 -100 154 0
1 -100 -94 0
1 100 91 0
1 -100 47 0
1 -100 83 0
1 -100 -96 0
1 114 169 0
1 114 -164 0
1 114 -104 0
1 114 -48 0
1 114 -116 0
1 114 91 0
1 114 -102 0
1 -114 -47 0
1 -116 169 0
1 116 -108 0
1 -116 48 0
1 -116 102 0
1 -116 -47 0
1 -116 83 0
1 116 96 0
1 -91 109 0
1 -91 106 0
1 91 -170 0
1 91 -80 0
1 -91 107 0
1 -91 171 0
1 -169 114 0
1 169 98 0
1 169 106 0
1 -169 172 0
1 -169 112 0
1 169 91 0
1 -169 100 0
1 169 173 0
1 -169 171 0
1 -94 -114 0
1 -94 98 0
1 -94 -106 0
1 -94 -174 0
1 94 -23 0
1 94 162 0
1 -94 -107 0
1 94 -173 0
1 94 96 0
1 -96 -167 0
1 -96 114 0
1 96 -174 0
1 -96 162 0
1 -96 -94 0
1 96 100 0
1 -96 107 0
1 96 -24 0
1 96 175 0
1 109 167 0
1 -109 169 0
1 109 -108 0
1 -109 -104 0
1 -109 45 0
1 -109 112 0
1 -109 43 0
1 -112 -109 0
1 -112 169 0
1 -112 108 0
1 112 -48 0
1 -112 -45 0
1 -112 -91 0
1 -112 -176 0
1 -171 108 0
1 -171 104 0
1 171 -115 0
1 171 91 0
1 -171 176 0
1 -171 -102 0
1 171 113 0
1 -171 175 0
1 -170 -169 0
1 -170 -108 0
1 170 104 0
1 170 111 0
1 170 91 0
1 -170 -110 0
1 102 109 0
1 -102 104 0
1 -102 -177 0
1 -102 -178 0
1 102 -171 0
1 104 109 0
1 -104 87 0
1 104 177 0
1 104 112 0
1 -104 -116 0
1 -104 -102 0
1 104 -179 0
1 104 171 0
1 -176 -109 0
1 -176 114 0
1 -176 108 0
1 176 180 0
1 176 -172 0
1 176 170 0
1 -176 181 0
1 -176 -173 0
1 -176 -171 0
1 108 -180 0
1 -108 -172 0
1 -108 -170 0
1 -108 -112 0
1 -108 -116 0
1 -108 -181 0
1 108 -173 0
1 108 -171 0
1 -179 115 0
1 -179 113 0
1 179 -110 0
1 -179 -173 0
1 -182 -104 0
1 182 115 0
1 182 172 0
1 182 102 0
1 -182 -113 0
1 182 110 0
1 182 179 0
1 -178 -115 0
1 178 -177 0
1 178 113 0
1 178 -110 0
1 -178 -181 0
1 -177 -110 0
1 -177 115 0
1 177 -102 0
1 -177 -178 0
1 -110 177 0
1 -110 111 0
1 110 -43 0
1 110 171 0
1 111 -45 0
1 111 -182 0
1 -111 178 0
1 113 -177 0
1 -113 182 0
1 -113 -170 0
1 -113 179 0
1 115 -48 0
1 115 -182 0
1 -115 170 0
1 115 113 0
1 115 178 0
1 -115 179 0
1 -135 -134 0
1 -135 -126 0
1 -135 -124 0
1 135 128 0
1 -135 -130 0
1 135 127 0
1 -135 125 0
1 135 -131 0
1 -135 -132 0
1 -134 75 0
1 134 -126 0
1 -134 124 0
1 134 128 0
1 -134 -130 0
1 134 122 0
1 -147 137 0
1 147 -183 0
1 -147 125 0
1 147 132 0
1 144 -126 0
1 144 137 0
1 144 183 0
1 -144 -130 0
1 -144 -147 0
1 -144 136 0
1 -144 -184 0
1 -144 132 0
1 125 -134 0
1 125 126 0
1 -125 152 0
1 125 140 0
1 -125 185 0
1 125 147 0
1 -125 141 0
1 -125 -144 0
1 126 -117 0
1 126 152 0
1 -126 -140 0
1 -126 -135 0
1 126 125 0
1 -126 186 0
1 126 141 0
1 -126 144 0
1 127 -134 0
1 127 187 0
1 127 147 0
1 -127 -118 0
1 -127 188 0
1 -187 189 0
1 -187 147 0
1 -187 127 0
1 187 -144 0
1 140 129 0
1 140 -62 0
1 -140 183 0
1 -140 -81 0
1 140 -130 0
1 140 133 0
1 -140 -125 0
1 -140 136 0
1 -140 184 0
1 -140 -141 0
1 141 132 0
1 -141 62 0
1 -141 -137 0
1 -141 183 0
1 141 -130 0
1 -141 140 0
1 141 184 0
1 152 -139 0
1 -152 -62 0
1 152 126 0
1 152 95 0
1 152 183 0
1 152 143 0
1 -152 67 0
1 -152 -136 0
1 152 186 0
1 152 184 0
1 -152 -190 0
1 186 -139 0
1 186 152 0
1 186 142 0
1 186 -125 0
1 186 -136 0
1 186 184 0
1 186 190 0
1 184 140 0
1 184 159 0
1 184 -160 0
1 -184 141 0
1 -184 191 0
1 -184 144 0
1 183 -150 0
1 -183 -152 0
1 -183 -192 0
1 183 140 0
1 -183 -147 0
1 -183 -193 0
1 -183 159 0
1 -183 -141 0
1 -183 -144 0
1 136 152 0
1 -136 140 0
1 136 122 0
1 -136 147 0
1 -136 193 0
1 -136 186 0
1 136 -194 0
1 -136 -141 0
1 -137 195 0
1 137 124 0
1 137 -152 0
1 137 140 0
1 -137 -147 0
1 137 -193 0
1 137 141 0
1 -137 144 0
1 -150 -139 0
1 150 -62 0
1 150 59 0
1 150 -145 0
1 -150 -89 0
1 -150 -183 0
1 150 -138 0
1 -150 184 0
1 -150 190 0
1 160 -139 0
1 160 -62 0
1 160 -150 0
1 160 183 0
1 160 143 0
1 160 142 0
1 -160 67 0
1 -160 138 0
1 160 -148 0
1 -160 -92 0
1 160 -184 0
1 161 196 0
1 -161 183 0
1 161 142 0
1 161 153 0
1 -161 151 0
1 161 -148 0
1 161 159 0
1 -161 -184 0
1 -161 -190 0
1 159 196 0
1 -159 197 0
1 -159 -161 0
1 159 -183 0
1 -159 143 0
1 159 142 0
1 -159 -148 0
1 159 -184 0
1 159 190 0
1 139 129 0
1 139 198 0
1 139 -155 0
1 -139 -142 0
1 -139 -199 0
1 139 -166 0
1 -139 -159 0
1 -139 -160 0
1 -139 186 0
1 -142 164 0
1 142 -155 0
1 142 161 0
1 142 -152 0
1 -142 133 0
1 -142 -200 0
1 -142 -157 0
1 142 159 0
1 142 -160 0
1 142 -186 0
1 -190 -201 0
1 -190 -202 0
1 -190 -195 0
1 190 161 0
1 -190 -152 0
1 -190 143 0
1 -190 159 0
1 190 -160 0
1 190 -186 0
1 -190 132 0
1 -143 -203 0
1 -143 202 0
1 143 -195 0
1 143 -150 0
1 -143 204 0
1 -143 159 0
1 -143 160 0
1 143 186 0
1 143 -190 0
1 155 139 0
1 -155 -98 0
1 155 145 0
1 -155 197 0
1 -155 146 0
1 -155 148 0
1 -157 196 0
1 157 155 0
1 -157 -197 0
1 -157 145 0
1 157 -146 0
1 -157 -84 0
1 157 142 0
1 157 100 0
1 157 -153 0
1 -157 193 0
1 -157 151 0
1 157 -86 0
1 164 196 0
1 164 197 0
1 -164 -156 0
1 164 142 0
1 -164 166 0
1 -164 -153 0
1 166 -197 0
1 166 -158 0
1 166 156 0
1 -166 -84 0
1 166 142 0
1 -166 116 0
1 -166 204 0
1 -166 -153 0
1 166 -151 0
1 166 -205 0
1 166 -206 0
1 197 -167 0
1 197 -164 0
1 197 166 0
1 197 -151 0
1 -197 159 0
1 197 -175 0
1 -151 -155 0
1 151 161 0
1 -151 -207 0
1 -151 -159 0
1 -151 175 0
1 -196 -208 0
1 -196 -164 0
1 196 -155 0
1 196 209 0
1 196 -166 0
1 153 203 0
1 153 196 0
1 153 155 0
1 153 209 0
1 153 199 0
1 -153 -67 0
1 153 -157 0
1 153 159 0
1 -167 109 0
1 -167 158 0
1 167 156 0
1 -167 84 0
1 -167 154 0
1 -167 162 0
1 167 94 0
1 -167 205 0
1 -167 -206 0
1 -167 -83 0
1 -167 96 0
1 -162 -197 0
1 162 158 0
1 -162 154 0
1 162 94 0
1 -162 -199 0
1 -162 151 0
1 -162 205 0
1 -162 -83 0
1 -162 96 0
1 -175 -208 0
1 175 -197 0
1 -175 158 0
1 -175 -165 0
1 -175 94 0
1 175 -151 0
1 -175 205 0
1 175 171 0
1 174 197 0
1 -174 -156 0
1 -174 -175 0
1 -174 210 0
1 174 209 0
1 -174 -151 0
1 174 205 0
1 174 -168 0
1 -156 -167 0
1 156 -206 0
1 -156 -146 0
1 -156 180 0
1 156 -172 0
1 -156 -166 0
1 156 181 0
1 -156 173 0
1 206 -180 0
1 206 156 0
1 -206 -172 0
1 -206 174 0
1 -206 162 0
1 -206 166 0
1 -206 173 0
1 -206 175 0
1 -158 167 0
1 158 164 0
1 -158 -145 0
1 -158 -211 0
1 158 -174 0
1 -158 -162 0
1 158 -212 0
1 205 158 0
1 205 211 0
1 205 174 0
1 -205 -162 0
1 205 148 0
1 -205 -212 0
1 -173 169 0
1 -173 -108 0
1 -173 165 0
1 173 210 0
1 -173 91 0
1 173 -176 0
1 173 -206 0
1 173 179 0
1 173 163 0
1 172 -169 0
1 172 108 0
1 -172 -182 0
1 172 207 0
1 172 210 0
1 172 -91 0
1 -172 163 0
1 172 206 0
1 -172 168 0
1 172 96 0
1 181 108 0
1 181 156 0
1 -181 -165 0
1 181 210 0
1 -181 -206 0
1 181 212 0
1 181 -163 0
1 -180 108 0
1 -180 156 0
1 180 165 0
1 -180 210 0
1 -180 206 0
1 -180 181 0
1 180 -163 0
1 210 154 0
1 210 174 0
1 210 -163 0
1 210 -181 0
1 210 -173 0
1 163 -172 0
1 -163 -174 0
1 163 -181 0
1 -163 -173 0
1 165 -84 0
1 165 -168 0
1 -165 181 0
1 165 -173 0
1 -168 -165 0
1 168 174 0
1 -168 -175 0
1 -195 155 0
1 195 183 0
1 -195 -193 0
1 195 188 0
1 -195 185 0
1 -195 136 0
1 -195 184 0
1 195 -190 0
1 -193 -195 0
1 -193 213 0
1 193 -137 0
1 193 -183 0
1 -193 -143 0
1 -193 157 0
1 -193 188 0
1 193 -136 0
1 -202 -189 0
1 -202 -214 0
1 202 143 0
1 202 188 0
1 202 185 0
1 202 194 0
1 202 191 0
1 204 -202 0
1 -204 -189 0
1 204 192 0
1 204 -143 0
1 -204 188 0
1 -204 -185 0
1 204 -190 0
1 185 -203 0
1 185 -202 0
1 185 -195 0
1 185 -199 0
1 185 -193 0
1 -185 125 0
1 -213 -208 0
1 -213 203 0
1 -213 202 0
1 213 195 0
1 213 126 0
1 -213 209 0
1 -213 -199 0
1 213 204 0
1 213 -193 0
1 213 185 0
1 188 -195 0
1 188 -193 0
1 -188 -127 0
1 -189 202 0
1 -189 195 0
1 -189 188 0
1 189 187 0
1 -189 204 0
1 203 167 0
1 203 139 0
1 203 -196 0
1 -203 192 0
1 203 -143 0
1 -203 -199 0
1 203 153 0
1 -203 -185 0
1 -203 194 0
1 199 -203 0
1 -199 -143 0
1 199 162 0
1 -199 -142 0
1 199 -194 0
1 -199 -191 0
1 208 -201 0
1 -208 198 0
1 208 -214 0
1 208 209 0
1 208 215 0
1 208 200 0
1 208 185 0
1 208 -194 0
1 208 175 0
1 209 201 0
1 -209 -198 0
1 -209 -196 0
1 -209 153 0
1 209 185 0
1 191 208 0
1 191 -192 0
1 -191 209 0
1 -191 -199 0
1 -191 -204 0
1 191 -184 0
1 -192 -208 0
1 192 211 0
1 -192 207 0
1 -194 -203 0
1 194 -202 0
1 -194 -209 0
1 194 -199 0
1 194 -136 0
1 214 -208 0
1 -214 -199 0
1 214 204 0
1 -207 -198 0
1 207 -158 0
1 -207 172 0
1 207 -200 0
1 -207 153 0
1 207 -151 0
1 -207 205 0
1 207 -191 0
1 212 201 0
1 212 -198 0
1 -212 -211 0
1 -212 -200 0
1 -212 -205 0
1 -212 181 0
1 211 201 0
1 -211 180 0
1 211 192 0
1 -211 215 0
1 -211 200 0
1 211 212 0
1 198 211 0
1 -198 -207 0
1 198 212 0
1 200 -211 0
1 -200 207 0
1 200 -212 0
1 201 211 0
1 201 -207 0
1 201 -209 0
1 201 -215 0
1 201 -212 0
1 201 190 0
1 -215 208 0
1 -215 -201 0
1 -215 -211 0
1 -215 207 0
